NAME          
ROWS
 N  OBJ
 L  c1
 L  c2
COLUMNS
    MARKER    'MARKER'                 'INTORG'
    x[1]      c1        121
    x[1]      c2        370
    x[1]      OBJ       -293
    x[2]      c1        68
    x[2]      c2        383
    x[2]      OBJ       -421
    x[3]      c1        171
    x[3]      c2        522
    x[3]      OBJ       -267
    x[4]      c1        90
    x[4]      c2        248
    x[4]      OBJ       -258
    x[5]      c1        503
    x[5]      c2        786
    x[5]      OBJ       -447
    x[6]      c1        988
    x[6]      c2        272
    x[6]      OBJ       -6
    x[7]      c1        49
    x[7]      c2        284
    x[7]      OBJ       -12
    x[8]      c1        494
    x[8]      c2        8
    x[8]      OBJ       -745
    x[9]      c1        174
    x[9]      c2        613
    x[9]      OBJ       -229
    x[10]     c1        938
    x[10]     c2        414
    x[10]     OBJ       -268
    x[11]     c1        627
    x[11]     c2        758
    x[11]     OBJ       -311
    x[12]     c1        46
    x[12]     c2        325
    x[12]     OBJ       -895
    x[13]     c1        935
    x[13]     c2        164
    x[13]     OBJ       -630
    x[14]     c1        80
    x[14]     c2        997
    x[14]     OBJ       -511
    x[15]     c1        214
    x[15]     c2        336
    x[15]     OBJ       -817
    x[16]     c1        143
    x[16]     c2        749
    x[16]     OBJ       -709
    x[17]     c1        714
    x[17]     c2        292
    x[17]     OBJ       -916
    x[18]     c1        130
    x[18]     c2        966
    x[18]     OBJ       -86
    x[19]     c1        18
    x[19]     c2        480
    x[19]     OBJ       -621
    x[20]     c1        25
    x[20]     c2        804
    x[20]     OBJ       -874
    x[21]     c1        806
    x[21]     c2        711
    x[21]     OBJ       -395
    x[22]     c1        786
    x[22]     c2        898
    x[22]     OBJ       -165
    x[23]     c1        532
    x[23]     c2        189
    x[23]     OBJ       -288
    x[24]     c1        483
    x[24]     c2        831
    x[24]     OBJ       -720
    x[25]     c1        947
    x[25]     c2        787
    x[25]     OBJ       -35
    x[26]     c1        987
    x[26]     c2        664
    x[26]     OBJ       -198
    x[27]     c1        14
    x[27]     c2        377
    x[27]     OBJ       -2
    x[28]     c1        681
    x[28]     c2        943
    x[28]     OBJ       -687
    x[29]     c1        785
    x[29]     c2        455
    x[29]     OBJ       -841
    x[30]     c1        443
    x[30]     c2        875
    x[30]     OBJ       -831
RHS
    rhs       c1        6496
    rhs       c2        8250
RANGES
BOUNDS
 LO bounds    x[1]      0
 PL bounds    x[1]
 LO bounds    x[2]      0
 PL bounds    x[2]
 LO bounds    x[3]      0
 PL bounds    x[3]
 LO bounds    x[4]      0
 PL bounds    x[4]
 LO bounds    x[5]      0
 PL bounds    x[5]
 LO bounds    x[6]      0
 PL bounds    x[6]
 LO bounds    x[7]      0
 PL bounds    x[7]
 LO bounds    x[8]      0
 PL bounds    x[8]
 LO bounds    x[9]      0
 PL bounds    x[9]
 LO bounds    x[10]     0
 PL bounds    x[10]
 LO bounds    x[11]     0
 PL bounds    x[11]
 LO bounds    x[12]     0
 PL bounds    x[12]
 LO bounds    x[13]     0
 PL bounds    x[13]
 LO bounds    x[14]     0
 PL bounds    x[14]
 LO bounds    x[15]     0
 PL bounds    x[15]
 LO bounds    x[16]     0
 PL bounds    x[16]
 LO bounds    x[17]     0
 PL bounds    x[17]
 LO bounds    x[18]     0
 PL bounds    x[18]
 LO bounds    x[19]     0
 PL bounds    x[19]
 LO bounds    x[20]     0
 PL bounds    x[20]
 LO bounds    x[21]     0
 PL bounds    x[21]
 LO bounds    x[22]     0
 PL bounds    x[22]
 LO bounds    x[23]     0
 PL bounds    x[23]
 LO bounds    x[24]     0
 PL bounds    x[24]
 LO bounds    x[25]     0
 PL bounds    x[25]
 LO bounds    x[26]     0
 PL bounds    x[26]
 LO bounds    x[27]     0
 PL bounds    x[27]
 LO bounds    x[28]     0
 PL bounds    x[28]
 LO bounds    x[29]     0
 PL bounds    x[29]
 LO bounds    x[30]     0
 PL bounds    x[30]
ENDATA
